40
1 0 8
3 0 12
3 1 5
3 2 3
4 3 14
5 1 1
5 4 7
6 1 14
6 4 8
7 3 7
7 4 5
7 5 9
7 6 11
8 0 2
8 2 11
8 4 13
8 5 14
8 6 13
9 0 3
9 1 2
9 2 1
9 3 14
9 6 12
9 7 10
10 2 3
10 5 11
10 7 9
10 8 5
11 3 7
11 5 5
12 0 11
12 1 7
12 2 12
12 3 14
12 5 2
12 7 14
12 10 13
13 0 9
13 3 12
13 5 3
13 6 6
13 9 2
13 10 8
13 11 13
13 12 10
14 4 9
14 7 3
14 12 12
15 1 1
15 3 12
15 4 14
15 5 11
15 6 10
15 7 7
15 10 5
15 11 14
15 12 11
15 13 9
15 14 4
16 0 7
16 1 12
16 2 6
16 7 3
16 9 12
16 10 11
16 11 14
16 13 11
16 14 5
17 1 1
17 2 6
17 4 8
17 5 4
17 8 6
17 9 1
17 11 1
17 12 2
17 13 3
17 14 3
17 15 9
17 16 8
18 1 10
18 6 6
18 7 12
18 8 13
18 12 3
18 13 9
18 14 10
18 17 11
19 1 3
19 3 11
19 4 3
19 5 12
19 7 13
19 9 5
19 12 3
19 13 8
19 14 1
19 15 1
20 1 3
20 3 7
20 7 13
20 11 7
20 13 14
20 14 5
20 15 12
20 18 14
20 19 7
21 0 14
21 6 10
21 8 1
21 9 6
21 11 10
21 14 9
21 15 1
21 18 2
21 19 10
21 20 12
22 0 14
22 4 3
22 5 8
22 6 5
22 7 4
22 8 10
22 9 12
22 10 4
22 11 1
22 13 5
22 14 7
22 16 3
22 17 3
22 21 13
23 0 8
23 1 8
23 3 5
23 4 11
23 7 14
23 8 9
23 18 8
23 19 5
23 20 1
23 22 10
24 0 7
24 1 7
24 5 13
24 6 5
24 8 6
24 9 14
24 10 9
24 11 12
24 12 12
24 14 11
24 20 14
24 21 10
24 23 8
25 1 3
25 7 9
25 14 4
25 15 12
25 16 9
25 19 3
25 20 3
25 21 13
25 23 7
25 24 8
26 0 7
26 3 14
26 5 11
26 7 6
26 8 4
26 10 13
26 12 10
26 13 8
26 14 1
26 19 12
26 20 12
26 21 5
26 23 13
26 24 4
26 25 4
27 1 11
27 2 11
27 3 13
27 8 9
27 10 3
27 11 3
27 15 1
27 16 5
27 20 1
27 23 1
27 24 14
27 25 12
28 2 9
28 3 9
28 11 1
28 13 8
28 15 9
28 19 14
28 20 6
28 22 10
28 25 3
28 27 3
29 1 11
29 5 7
29 6 1
29 7 9
29 10 4
29 11 11
29 12 3
29 13 12
29 14 6
29 18 5
29 19 11
29 22 4
29 23 6
29 25 3
29 28 11
30 0 7
30 2 9
30 4 14
30 5 1
30 7 10
30 9 7
30 11 10
30 12 6
30 13 12
30 15 10
30 19 7
30 20 10
30 22 11
30 23 14
30 25 14
30 26 3
30 27 11
30 28 4
30 29 6
31 1 6
31 3 8
31 4 5
31 5 4
31 10 4
31 11 2
31 12 9
31 13 8
31 14 12
31 15 2
31 17 1
31 20 9
31 21 1
31 22 4
31 27 7
32 2 12
32 3 8
32 4 6
32 5 12
32 6 2
32 7 5
32 10 6
32 11 14
32 12 11
32 13 7
32 16 12
32 17 9
32 19 4
32 20 10
32 21 10
32 23 13
32 25 3
32 26 4
32 27 2
32 28 7
32 29 2
32 30 7
32 31 1
33 0 14
33 1 4
33 4 1
33 6 11
33 7 1
33 10 4
33 11 6
33 12 8
33 13 14
33 16 7
33 19 1
33 20 11
33 22 11
33 25 3
33 26 2
33 27 10
33 32 11
34 1 14
34 2 9
34 4 9
34 6 2
34 8 10
34 10 8
34 12 4
34 19 8
34 23 6
34 27 7
34 31 9
35 0 14
35 1 1
35 2 8
35 6 2
35 9 8
35 10 4
35 11 4
35 12 4
35 18 8
35 20 1
35 21 13
35 22 10
35 26 10
35 29 2
35 31 14
35 33 8
36 0 14
36 4 8
36 9 7
36 15 14
36 16 6
36 18 13
36 22 14
36 23 1
36 27 4
36 29 5
36 33 12
37 0 13
37 1 2
37 2 12
37 3 7
37 5 6
37 6 11
37 8 7
37 9 12
37 10 13
37 11 9
37 12 7
37 14 1
37 15 5
37 19 7
37 20 3
37 21 4
37 23 7
37 25 13
37 27 4
37 28 5
37 29 3
37 31 1
38 0 9
38 1 7
38 2 5
38 3 3
38 4 5
38 6 12
38 7 5
38 9 1
38 10 7
38 11 6
38 13 14
38 14 10
38 16 9
38 17 13
38 18 10
38 20 10
38 21 9
38 22 2
38 23 2
38 24 1
38 27 3
38 29 4
38 30 7
38 33 13
38 35 3
38 36 1
39 5 13
39 7 9
39 8 7
39 12 14
39 13 10
39 16 3
39 17 13
39 19 9
39 20 3
39 23 12
39 28 1
39 29 12
39 31 4
39 32 12
39 33 11
39 34 5
39 35 1
39 37 9
39 38 13
